NAME 
ROWS
 N  OBJ
 L  R0      
 E  R1      
 E  R2      
 E  R3      
 E  R4      
 E  R5      
 E  R6      
 E  R7      
 E  R8      
 E  R9      
 E  R10     
 E  R11     
 E  R12     
 E  R13     
 E  R14     
 E  R15     
COLUMNS
    MARKER    'MARKER'                 'INTORG'
    I0(8)     OBJ       -8
    I0(8)     R0        -128
    I0(8)     R2        16
    I0(8)     R3        12
    I0(8)     R5        6
    I0(8)     R6        17
    I0(8)     R8        15
    I0(8)     R9        2
    I0(8)     R15       1
    I1(8)     OBJ       -44
    I1(8)     R0        -183
    I1(8)     R2        4
    I1(8)     R3        12
    I1(8)     R4        4
    I1(8)     R6        2
    I1(8)     R7        18
    I1(8)     R8        9
    I1(8)     R15       1
    I2(8)     OBJ       -130
    I2(8)     R0        77
    I2(8)     R4        9
    I2(8)     R5        -1
    I2(8)     R6        9
    I2(8)     R7        11
    I2(8)     R8        16
    I2(8)     R9        2
    I2(8)     R15       1
    I3(9)     OBJ       163
    I3(9)     R0        32
    I3(9)     R1        19
    I3(9)     R2        7
    I3(9)     R3        -1
    I3(9)     R4        2
    I3(9)     R5        9
    I3(9)     R7        3
    I3(9)     R8        9
    I3(9)     R15       1
    I4(9)     OBJ       12
    I4(9)     R0        154
    I4(9)     R1        8
    I4(9)     R2        9
    I4(9)     R4        18
    I4(9)     R5        3
    I4(9)     R7        16
    I4(9)     R8        14
    I4(9)     R9        -1
    I4(9)     R15       1
    I5(10)    OBJ       109
    I5(10)    R0        -81
    I5(10)    R1        5
    I5(10)    R2        12
    I5(10)    R4        9
    I5(10)    R5        18
    I5(10)    R6        18
    I5(10)    R7        9
    I5(10)    R8        18
    I5(10)    R9        18
    I5(10)    R15       1
    I6(8)     OBJ       -100
    I6(8)     R0        108
    I6(8)     R1        8
    I6(8)     R2        11
    I6(8)     R3        2
    I6(8)     R6        9
    I6(8)     R7        5
    I6(8)     R8        5
    I6(8)     R15       1
    I7(9)     OBJ       -170
    I7(9)     R0        -152
    I7(9)     R1        15
    I7(9)     R2        12
    I7(9)     R4        17
    I7(9)     R5        17
    I7(9)     R6        8
    I7(9)     R7        6
    I7(9)     R9        5
    I7(9)     R15       1
    I8(11)    OBJ       170
    I8(11)    R0        48
    I8(11)    R1        3
    I8(11)    R2        16
    I8(11)    R3        12
    I8(11)    R4        3
    I8(11)    R5        16
    I8(11)    R6        9
    I8(11)    R7        18
    I8(11)    R8        13
    I8(11)    R9        7
    I8(11)    R15       1
    MARKER    'MARKER'                 'INTEND'
    C9(11)    OBJ       8
    C9(11)    R0        6
    C9(11)    R1        11
    C9(11)    R2        -1
    C9(11)    R5        19
    C9(11)    R6        7
    C9(11)    R8        3
    C9(11)    R9        19
    C9(11)    R10       15
    C9(11)    R12       4
    C9(11)    R13       2
    C9(11)    R14       12
    C10(11)   OBJ       -3
    C10(11)   R1        -1
    C10(11)   R2        8
    C10(11)   R3        6
    C10(11)   R5        6
    C10(11)   R7        15
    C10(11)   R8        4
    C10(11)   R9        15
    C10(11)   R11       6
    C10(11)   R12       8
    C10(11)   R13       6
    C10(11)   R14       3
    C11(12)   OBJ       7
    C11(12)   R0        -2
    C11(12)   R3        14
    C11(12)   R4        4
    C11(12)   R6        8
    C11(12)   R7        2
    C11(12)   R8        -1
    C11(12)   R9        17
    C11(12)   R10       16
    C11(12)   R11       -1
    C11(12)   R12       13
    C11(12)   R13       16
    C11(12)   R14       7
    C12(12)   OBJ       2
    C12(12)   R0        -3
    C12(12)   R2        15
    C12(12)   R3        18
    C12(12)   R4        5
    C12(12)   R5        4
    C12(12)   R6        2
    C12(12)   R8        7
    C12(12)   R9        -1
    C12(12)   R11       3
    C12(12)   R12       7
    C12(12)   R13       9
    C12(12)   R14       18
    C13(11)   OBJ       1
    C13(11)   R0        7
    C13(11)   R1        1
    C13(11)   R2        19
    C13(11)   R3        14
    C13(11)   R4        2
    C13(11)   R6        4
    C13(11)   R7        14
    C13(11)   R9        13
    C13(11)   R11       18
    C13(11)   R13       15
    C13(11)   R14       -1
    C14(12)   OBJ       -3
    C14(12)   R0        -6
    C14(12)   R1        14
    C14(12)   R2        14
    C14(12)   R3        -1
    C14(12)   R4        11
    C14(12)   R5        14
    C14(12)   R6        7
    C14(12)   R7        19
    C14(12)   R8        5
    C14(12)   R10       8
    C14(12)   R12       1
    C14(12)   R13       -1
    C15(1)    R1        1
    C16(1)    R2        1
    C17(1)    R3        1
    C18(1)    R4        1
    C19(1)    R5        1
    C20(1)    R6        1
    C21(1)    R7        1
    C22(1)    R8        1
    C23(1)    R9        1
    C24(1)    R10       1
    C25(1)    R11       1
    C26(1)    R12       1
    C27(1)    R13       1
    C28(1)    R14       1
    C29(1)    R15       1
RHS
    RHS1      R0        -227
    RHS1      R1        89
    RHS1      R2        99
    RHS1      R3        80
    RHS1      R4        87
    RHS1      R5        55
    RHS1      R6        87
    RHS1      R7        64
    RHS1      R8        76
    RHS1      R9        73
    RHS1      R10       70
    RHS1      R11       62
    RHS1      R12       54
    RHS1      R13       71
    RHS1      R14       56
    RHS1      R15       3
BOUNDS
 UP BND1      I0(8)     2
 UP BND1      I1(8)     2
 UP BND1      I2(8)     2
 UP BND1      I3(9)     2
 UP BND1      I4(9)     2
 UP BND1      I5(10)    2
 UP BND1      I6(8)     2
 UP BND1      I7(9)     2
 UP BND1      I8(11)    2
ENDATA
